c This is a random SAT instance with 10 variables and 20 clauses
p cnf 10 20
-7 7 6 -2 -10 9 0
10 2 0
1 10 -1 4 0
1 -8 10 -7 -9 9 0
-2 0
-8 7 3 -10 -9 9 -7 0
-3 -2 8 6 0
-2 1 -5 7 3 -8 5 0
1 2 0
8 -4 3 4 7 6 -5 -10 0
4 2 3 -1 -6 -4 -5 0
8 -2 2 0
-7 -1 -3 4 9 -2 0
-4 6 2 9 -6 8 -9 0
2 0
-7 -2 9 -10 0
-8 5 -2 -3 7 3 2 6 -4 0
-7 0
-9 9 10 4 1 -1 -8 0
-9 -5 1 -10 7 -1 10 2 9 0